NAME: random-72-11038
TYPE: TSP
COMMENT: size=72 seed=11038
DIMENSION: 146
EDGE_WEIGHT_TYPE: EUC_2D
NODE_COORD_SECTION
+0 666 665
-0 666 665
+1 980 184
-1 879 393
+2 868 843
-2 969 19
+3 412 89
-3 776 752
+4 450 354
-4 816 417
+5 138 162
-5 795 276
+6 947 502
-6 57 165
+7 631 597
-7 630 177
+8 744 765
-8 552 973
+9 201 859
-9 469 494
+10 24 821
-10 462 963
+11 853 416
-11 427 503
+12 902 967
-12 418 183
+13 176 874
-13 29 81
+14 322 972
-14 495 118
+15 141 812
-15 256 825
+16 608 970
-16 887 857
+17 397 796
-17 2 998
+18 604 852
-18 861 410
+19 652 224
-19 115 275
+20 731 771
-20 677 485
+21 445 54
-21 468 823
+22 434 548
-22 766 167
+23 712 261
-23 548 469
+24 652 470
-24 760 977
+25 328 978
-25 108 168
+26 894 681
-26 894 578
+27 519 558
-27 527 205
+28 23 993
-28 771 106
+29 735 6
-29 248 623
+30 292 756
-30 221 220
+31 498 186
-31 550 884
+32 816 821
-32 666 411
+33 743 936
-33 220 685
+34 558 740
-34 291 787
+35 509 963
-35 758 321
+36 517 403
-36 765 757
+37 776 604
-37 649 348
+38 633 134
-38 871 59
+39 476 244
-39 323 780
+40 129 302
-40 735 39
+41 533 628
-41 931 223
+42 582 29
-42 732 547
+43 795 914
-43 824 716
+44 829 365
-44 6 811
+45 504 422
-45 273 381
+46 162 5
-46 701 926
+47 954 166
-47 425 936
+48 261 242
-48 829 298
+49 449 770
-49 499 135
+50 484 960
-50 372 550
+51 84 99
-51 654 588
+52 195 296
-52 859 61
+53 871 42
-53 838 365
+54 518 20
-54 929 880
+55 70 266
-55 52 295
+56 668 470
-56 469 962
+57 434 739
-57 757 152
+58 984 600
-58 100 742
+59 253 389
-59 539 262
+60 530 399
-60 970 987
+61 184 978
-61 572 439
+62 989 37
-62 190 421
+63 912 770
-63 357 592
+64 863 514
-64 723 428
+65 147 341
-65 521 246
+66 151 471
-66 132 901
+67 588 433
-67 723 977
+68 559 491
-68 352 341
+69 599 908
-69 939 942
+70 861 428
-70 353 42
+71 781 422
-71 42 552
+72 813 618
-72 421 475
PRECEDENCE_SECTION
+0 -0
+1 -1
+2 -2
+3 -3
+4 -4
+5 -5
+6 -6
+7 -7
+8 -8
+9 -9
+10 -10
+11 -11
+12 -12
+13 -13
+14 -14
+15 -15
+16 -16
+17 -17
+18 -18
+19 -19
+20 -20
+21 -21
+22 -22
+23 -23
+24 -24
+25 -25
+26 -26
+27 -27
+28 -28
+29 -29
+30 -30
+31 -31
+32 -32
+33 -33
+34 -34
+35 -35
+36 -36
+37 -37
+38 -38
+39 -39
+40 -40
+41 -41
+42 -42
+43 -43
+44 -44
+45 -45
+46 -46
+47 -47
+48 -48
+49 -49
+50 -50
+51 -51
+52 -52
+53 -53
+54 -54
+55 -55
+56 -56
+57 -57
+58 -58
+59 -59
+60 -60
+61 -61
+62 -62
+63 -63
+64 -64
+65 -65
+66 -66
+67 -67
+68 -68
+69 -69
+70 -70
+71 -71
+72 -72
EOF
